c Generated map
c Size: 9 * 9, weights in range: 1 to 10, walls: True, with ratio 0.05
c dim 2 of 8
c
p sp 81 129
c graph contains 81 nodes and 129 arcs
c
a 1 10 8
a 10 1 8
a 1 2 6
a 2 1 6
a 2 11 1
a 11 2 1
a 2 3 10
a 3 2 10
a 3 4 2
a 4 3 2
a 4 13 10
a 13 4 10
a 4 5 6
a 5 4 6
a 5 14 9
a 14 5 9
a 5 6 3
a 6 5 3
a 6 15 6
a 15 6 6
a 6 7 3
a 7 6 3
a 7 16 2
a 16 7 2
a 7 8 10
a 8 7 10
a 8 17 5
a 17 8 5
a 8 9 10
a 9 8 10
a 9 18 1
a 18 9 1
a 10 19 2
a 19 10 2
a 10 11 6
a 11 10 6
a 11 20 2
a 20 11 2
a 13 22 7
a 22 13 7
a 13 14 3
a 14 13 3
a 14 23 4
a 23 14 4
a 14 15 9
a 15 14 9
a 15 24 5
a 24 15 5
a 15 16 10
a 16 15 10
a 16 25 3
a 25 16 3
a 16 17 5
a 17 16 5
a 17 26 1
a 26 17 1
a 17 18 9
a 18 17 9
a 18 27 9
a 27 18 9
a 19 28 5
a 28 19 5
a 19 20 4
a 20 19 4
a 20 29 8
a 29 20 8
a 20 21 6
a 21 20 6
a 21 30 8
a 30 21 8
a 21 22 8
a 22 21 8
a 22 31 4
a 31 22 4
a 22 23 6
a 23 22 6
a 23 32 1
a 32 23 1
a 23 24 3
a 24 23 3
a 24 33 3
a 33 24 3
a 24 25 10
a 25 24 10
a 25 34 2
a 34 25 2
a 25 26 9
a 26 25 9
a 26 35 3
a 35 26 3
a 26 27 9
a 27 26 9
a 27 36 1
a 36 27 1
a 28 37 4
a 37 28 4
a 28 29 9
a 29 28 9
a 29 38 1
a 38 29 1
a 29 30 1
a 30 29 1
a 30 39 3
a 39 30 3
a 30 31 2
a 31 30 2
a 31 40 1
a 40 31 1
a 31 32 8
a 32 31 8
a 32 41 7
a 41 32 7
a 32 33 1
a 33 32 1
a 33 42 4
a 42 33 4
a 33 34 5
a 34 33 5
a 34 43 7
a 43 34 7
a 34 35 8
a 35 34 8
a 35 44 9
a 44 35 9
a 35 36 4
a 36 35 4
a 36 45 4
a 45 36 4
a 37 46 7
a 46 37 7
a 37 38 2
a 38 37 2
a 38 47 10
a 47 38 10
a 38 39 7
a 39 38 7
a 39 48 3
a 48 39 3
a 39 40 9
a 40 39 9
a 40 49 9
a 49 40 9
a 40 41 1
a 41 40 1
a 41 50 5
a 50 41 5
a 41 42 8
a 42 41 8
a 42 51 9
a 51 42 9
a 42 43 3
a 43 42 3
a 43 52 5
a 52 43 5
a 43 44 4
a 44 43 4
a 44 53 1
a 53 44 1
a 44 45 9
a 45 44 9
a 45 54 2
a 54 45 2
a 46 55 9
a 55 46 9
a 46 47 5
a 47 46 5
a 47 56 4
a 56 47 4
a 47 48 4
a 48 47 4
a 48 57 8
a 57 48 8
a 48 49 8
a 49 48 8
a 49 58 2
a 58 49 2
a 49 50 5
a 50 49 5
a 50 51 10
a 51 50 10
a 51 60 7
a 60 51 7
a 51 52 3
a 52 51 3
a 52 61 7
a 61 52 7
a 52 53 6
a 53 52 6
a 53 62 1
a 62 53 1
a 53 54 6
a 54 53 6
a 54 63 5
a 63 54 5
a 55 64 8
a 64 55 8
a 55 56 9
a 56 55 9
a 56 65 4
a 65 56 4
a 56 57 10
a 57 56 10
a 57 66 9
a 66 57 9
a 57 58 10
a 58 57 10
a 58 67 4
a 67 58 4
a 60 69 2
a 69 60 2
a 60 61 8
a 61 60 8
a 61 70 10
a 70 61 10
a 61 62 5
a 62 61 5
a 62 63 10
a 63 62 10
a 63 72 8
a 72 63 8
a 64 73 5
a 73 64 5
a 64 65 10
a 65 64 10
a 65 66 5
a 66 65 5
a 66 75 9
a 75 66 9
a 66 67 8
a 67 66 8
a 67 76 8
a 76 67 8
a 67 68 3
a 68 67 3
a 68 77 6
a 77 68 6
a 68 69 7
a 69 68 7
a 69 78 8
a 78 69 8
a 69 70 3
a 70 69 3
a 70 79 6
a 79 70 6
a 72 81 4
a 81 72 4
a 75 76 7
a 76 75 7
a 76 77 2
a 77 76 2
a 77 78 4
a 78 77 4
a 78 79 2
a 79 78 2
a 79 80 2
a 80 79 2
a 80 81 3
a 81 80 3
